# Solution for model JobShopModel
# Objective value = 4834
y[0,0,3] 1
y[0,0,4] 0
y[0,1,1] 1
y[0,1,3] 0
y[0,2,0] 1
y[1,0,4] 1
y[1,1,1] 1
y[1,1,2] 0
y[1,2,0] 1
y[1,2,2] 0
y[2,0,3] 0
y[2,0,4] 1
y[2,1,2] 1
y[2,2,0] 1
y[2,2,1] 0
y[3,0,2] 0
y[3,0,3] 1
y[3,1,4] 1
y[3,2,0] 0
y[3,2,1] 1
x[0,0,0,0] 0
x[0,0,0,1] 1
x[0,0,0,2] 0
x[0,0,1,0] 0
x[0,0,1,1] 0
x[0,0,1,2] 0
x[0,0,2,0] 1
x[0,0,2,1] 0
x[0,0,2,2] 0
x[0,0,3,0] 1
x[0,0,3,1] 0
x[0,0,3,2] 0
x[0,1,0,0] 0
x[0,1,0,1] 0
x[0,1,0,2] 0
x[0,1,1,0] 0
x[0,1,1,1] 0
x[0,1,1,2] 0
x[0,1,2,0] 0
x[0,1,2,1] 0
x[0,1,2,2] 0
x[0,1,3,0] 0
x[0,1,3,1] 0
x[0,1,3,2] 1
x[0,2,0,0] 0
x[0,2,0,1] 0
x[0,2,0,2] 0
x[0,2,1,0] 0
x[0,2,1,1] 0
x[0,2,1,2] 0
x[0,2,2,0] 0
x[0,2,2,1] 0
x[0,2,2,2] 1
x[0,2,3,0] 0
x[0,2,3,1] 0
x[0,2,3,2] 0
x[1,0,0,0] 0
x[1,0,0,1] 0
x[1,0,0,2] 0
x[1,0,1,0] 0
x[1,0,1,1] 0
x[1,0,1,2] 0
x[1,0,2,0] 1
x[1,0,2,1] 0
x[1,0,2,2] 0
x[1,0,3,0] 0
x[1,0,3,1] 1
x[1,0,3,2] 0
x[1,1,0,0] 0
x[1,1,0,1] 0
x[1,1,0,2] 0
x[1,1,1,0] 0
x[1,1,1,1] 0
x[1,1,1,2] 0
x[1,1,2,0] 0
x[1,1,2,1] 0
x[1,1,2,2] 1
x[1,1,3,0] 0
x[1,1,3,1] 0
x[1,1,3,2] 1
x[1,2,0,0] 0
x[1,2,0,1] 0
x[1,2,0,2] 0
x[1,2,1,0] 0
x[1,2,1,1] 1
x[1,2,1,2] 0
x[1,2,2,0] 0
x[1,2,2,1] 0
x[1,2,2,2] 1
x[1,2,3,0] 0
x[1,2,3,1] 0
x[1,2,3,2] 0
x[2,0,0,0] 0
x[2,0,0,1] 0
x[2,0,0,2] 0
x[2,0,1,0] 0
x[2,0,1,1] 0
x[2,0,1,2] 0
x[2,0,2,0] 0
x[2,0,2,1] 0
x[2,0,2,2] 0
x[2,0,3,0] 0
x[2,0,3,1] 1
x[2,0,3,2] 0
x[2,1,0,0] 0
x[2,1,0,1] 0
x[2,1,0,2] 0
x[2,1,1,0] 0
x[2,1,1,1] 0
x[2,1,1,2] 0
x[2,1,2,0] 0
x[2,1,2,1] 0
x[2,1,2,2] 0
x[2,1,3,0] 0
x[2,1,3,1] 0
x[2,1,3,2] 0
x[2,2,0,0] 0
x[2,2,0,1] 0
x[2,2,0,2] 0
x[2,2,1,0] 0
x[2,2,1,1] 0
x[2,2,1,2] 0
x[2,2,2,0] 0
x[2,2,2,1] 0
x[2,2,2,2] 0
x[2,2,3,0] 0
x[2,2,3,1] 0
x[2,2,3,2] 0
x[3,0,0,0] 0
x[3,0,0,1] 0
x[3,0,0,2] 0
x[3,0,1,0] 0
x[3,0,1,1] 0
x[3,0,1,2] 0
x[3,0,2,0] 0
x[3,0,2,1] 0
x[3,0,2,2] 0
x[3,0,3,0] 0
x[3,0,3,1] 0
x[3,0,3,2] 0
x[3,1,0,0] 0
x[3,1,0,1] 0
x[3,1,0,2] 0
x[3,1,1,0] 0
x[3,1,1,1] 0
x[3,1,1,2] 0
x[3,1,2,0] 0
x[3,1,2,1] 0
x[3,1,2,2] 0
x[3,1,3,0] 0
x[3,1,3,1] 0
x[3,1,3,2] 0
x[3,2,0,0] 0
x[3,2,0,1] 0
x[3,2,0,2] 0
x[3,2,1,0] 0
x[3,2,1,1] 0
x[3,2,1,2] 0
x[3,2,2,0] 0
x[3,2,2,1] 0
x[3,2,2,2] 0
x[3,2,3,0] 0
x[3,2,3,1] 0
x[3,2,3,2] 0
s[0,0,3] 1153
s[0,0,4] 0
s[0,1,1] 948
s[0,1,3] 0
s[0,2,0] 801
s[1,0,4] 1518
s[1,1,1] 1452
s[1,1,2] 0
s[1,2,0] 1238
s[1,2,2] 0
s[2,0,3] 0
s[2,0,4] 872
s[2,1,2] 567
s[2,2,0] 480
s[2,2,1] 0
s[3,0,2] 0
s[3,0,3] 718
s[3,1,4] 545
s[3,2,0] 0
s[3,2,1] 480
Z_FO 4834
